Minimize

12.0 y_0_1 + 10.0 y_0_2 + 12.0 y_0_1 + 10.0 y_0_2 + 12.0 y_0_1 + 10.0 y_0_2 + 12.0 y_0_1 + 10.0 y_0_2 + 12.0 y_0_1 + 10.0 y_0_2 + 12.0 y_0_1 + 10.0 y_0_2 + 9.0 y_1_2 + 20.0 y_1_5 + 9.0 y_1_2 + 20.0 y_1_5 + 9.0 y_1_2 + 20.0 y_1_5 + 9.0 y_1_2 + 20.0 y_1_5 + 9.0 y_1_2 + 20.0 y_1_5 + 9.0 y_1_2 + 20.0 y_1_5 + 14.0 y_2_3 + 14.0 y_2_3 + 14.0 y_2_3 + 14.0 y_2_3 + 14.0 y_2_3 + 14.0 y_2_3 + 4.0 y_3_5 + 4.0 y_3_5 + 4.0 y_3_5 + 4.0 y_3_5 + 4.0 y_3_5 + 4.0 y_3_5 + 16.0 y_4_0 + 13.0 y_4_2 + 16.0 y_4_0 + 13.0 y_4_2 + 16.0 y_4_0 + 13.0 y_4_2 + 16.0 y_4_0 + 13.0 y_4_2 + 16.0 y_4_0 + 13.0 y_4_2 + 16.0 y_4_0 + 13.0 y_4_2


Subject To

a0: x_0 - x_1 + y_0_1 >= 0
a1: x_0 - x_2 + y_0_2 >= 0
a2: x_1 - x_2 + y_1_2 >= 0
a3: x_1 - x_5 + y_1_5 >= 0
a4: x_2 - x_3 + y_2_3 >= 0
a5: x_3 - x_5 + y_3_5 >= 0
a6: x_4 - x_0 + y_4_0 >= 0
a7: x_4 - x_2 + y_4_2 >= 0
b0: x_4 = 0
c0: x_5 = 1




Binary

x_0 x_1 x_2 x_3 x_4 x_5 y_0_1 y_0_2 y_1_2 y_1_5 y_2_3 y_3_5 y_4_0 y_4_2

 


End
